(define-fun
  h3
  () Int (+ 1 2))
(define-fun
  h2
  ((x Int)) Int (+ 1 x))
(define-fun
  h1
  ((x Int)) Int (div x 2))
(define-fun
  g0
  ((x Int)) Int x)
(define-fun
  f3
  ((x Int)) Int (* (* x x) x))
(define-fun-rec
  u3
  ((x Int) (y Int)) Int (ite (<= x 0) y (f3 (u3 (- x 1) y))))
(define-fun
  v3
  () Int (u3 1 h3))
(define-fun
  f2
  ((x Int)) Int (div (* 2 (* 2 (+ (+ x x) x))) (+ 2 v3)))
(define-fun-rec
  u2
  ((x Int) (y Int)) Int (ite (<= x 0) y (f2 (u2 (- x 1) y))))
(define-fun
  v2
  ((x Int)) Int (u2 2 (h2 x)))
(define-fun
  fast
  ((x Int)) Int (mod (+ (v2 x) x) 2))
(define-fun
  f1
  ((x Int)) Int (* x x))
(define-fun-rec
  u1
  ((x Int) (y Int)) Int (ite (<= x 0) y (f1 (u1 (- x 1) y))))
(define-fun
  v1
  ((x Int)) Int (u1 1 (h1 x)))
(define-fun
  f0
  ((x Int) (y Int)) Int (+ (div (div (+ (v1 x) x) 2) y) y))
(define-fun-rec
  u0
  ((x Int) (y Int)) Int (ite (<= x 0) y (f0 (u0 (- x 1) y) x)))
(define-fun
  v0
  ((x Int)) Int (u0 x 0))
(define-fun
  small
  ((x Int)) Int (mod (v0 x) 2))
(assert-not
  (forall ((c Int)) (or (not (>= c 0)) (= (small c) (fast c)))))
